\ Model Cl_30_Ins_7.lp
\ LP format - for model browsing. Use MPS format to capture full model detail.
Maximize
 
Subject To
 obj1: y[0] = 0
 obj2: y[1] = 0
 obj1_Exp: - y[0] + 95 x[0] + 92 x[1] + 88 x[2] + 87 x[3] + 80 x[4]
   + 79 x[5] + 70 x[6] + 65 x[7] + 63 x[8] + 62 x[9] + 61 x[10] + 58 x[11]
   + 54 x[12] + 53 x[13] + 53 x[14] + 50 x[15] + 44 x[16] + 41 x[17]
   + 39 x[18] + 36 x[19] + 30 x[20] + 26 x[21] + 25 x[22] + 22 x[23]
   + 19 x[24] + 19 x[25] + 15 x[26] + 8 x[27] + 6 x[28] + 6 x[29] = 0
 obj2_Exp: - y[1] + 34 x[0] + 72 x[1] + 60 x[2] + 44 x[3] + 59 x[4]
   + 19 x[5] + 20 x[6] + 68 x[7] + 48 x[8] + 11 x[9] + 45 x[10] + 31 x[11]
   + 41 x[12] + 8 x[13] + 22 x[14] + 90 x[15] + 43 x[16] + 49 x[17]
   + 88 x[18] + 37 x[19] + 87 x[20] + 44 x[21] + 4 x[22] + 11 x[23]
   + 89 x[24] + 87 x[25] + 41 x[26] + 69 x[27] + 56 x[28] + 73 x[29] = 0
 Budget: 105 x[0] + 102 x[1] + 98 x[2] + 97 x[3] + 90 x[4] + 89 x[5]
   + 80 x[6] + 75 x[7] + 73 x[8] + 72 x[9] + 71 x[10] + 68 x[11] + 64 x[12]
   + 63 x[13] + 63 x[14] + 60 x[15] + 54 x[16] + 51 x[17] + 49 x[18]
   + 46 x[19] + 40 x[20] + 36 x[21] + 35 x[22] + 32 x[23] + 29 x[24]
   + 29 x[25] + 25 x[26] + 18 x[27] + 16 x[28] + 16 x[29] <= 674
Bounds
Binaries
 x[0] x[1] x[2] x[3] x[4] x[5] x[6] x[7] x[8] x[9] x[10] x[11] x[12] x[13]
 x[14] x[15] x[16] x[17] x[18] x[19] x[20] x[21] x[22] x[23] x[24] x[25]
 x[26] x[27] x[28] x[29]
Generals
 y[0] y[1]
End
